c input_v2/binomial/cnf_noALO_v2/10x10_120.cnf
c p 1000
c cnf 9204
s SATISFIABLE
c process-time: 0.01 seconds
-----
c input_v2/binomial/cnf_noALO_v2/10x10_121.cnf
c p 1000
c cnf 8998
s SATISFIABLE
c process-time: 0.00 seconds
-----
c input_v2/binomial/cnf_noALO_v2/10x10_122.cnf
c p 1000
c cnf 9053
s SATISFIABLE
c process-time: 0.00 seconds
-----
c input_v2/binomial/cnf_noALO_v2/10x10_123.cnf
c p 1100
c cnf 10296
s SATISFIABLE
c process-time: 0.00 seconds
-----
c input_v2/binomial/cnf_noALO_v2/10x10_124.cnf
c p 1000
c cnf 9034
s SATISFIABLE
c process-time: 0.00 seconds
-----
c input_v2/binomial/cnf_noALO_v2/10x10_130.cnf
c p 1000
c cnf 8888
s SATISFIABLE
c process-time: 0.00 seconds
-----
c input_v2/binomial/cnf_noALO_v2/10x10_131.cnf
c p 800
c cnf 6954
s SATISFIABLE
c process-time: 0.00 seconds
-----
c input_v2/binomial/cnf_noALO_v2/10x10_132.cnf
c p 900
c cnf 8080
s SATISFIABLE
c process-time: 0.00 seconds
-----
c input_v2/binomial/cnf_noALO_v2/10x10_133.cnf
c p 1100
c cnf 10426
s SATISFIABLE
c process-time: 0.00 seconds
-----
c input_v2/binomial/cnf_noALO_v2/10x10_134.cnf
c p 800
c cnf 6991
s SATISFIABLE
c process-time: 0.00 seconds
-----
c input_v2/binomial/cnf_noALO_v2/10x10_135.cnf
c p 900
c cnf 8025
s SATISFIABLE
c process-time: 0.00 seconds
-----
c input_v2/binomial/cnf_noALO_v2/10x10_136.cnf
c p 1000
c cnf 9093
s SATISFIABLE
c process-time: 0.00 seconds
-----
c input_v2/binomial/cnf_noALO_v2/10x10_137.cnf
c p 1000
c cnf 9098
s SATISFIABLE
c process-time: 0.00 seconds
-----
c input_v2/binomial/cnf_noALO_v2/10x10_138.cnf
c p 1100
c cnf 10341
s SATISFIABLE
c process-time: 0.00 seconds
-----
c input_v2/binomial/cnf_noALO_v2/10x10_139.cnf
c p 900
c cnf 7952
s SATISFIABLE
c process-time: 0.00 seconds
-----
c input_v2/binomial/cnf_noALO_v2/10x10_140.cnf
c p 1100
c cnf 10211
s SATISFIABLE
c process-time: 0.00 seconds
-----
c input_v2/binomial/cnf_noALO_v2/10x10_141.cnf
c p 1000
c cnf 9173
s SATISFIABLE
c process-time: 0.00 seconds
-----
c input_v2/binomial/cnf_noALO_v2/10x10_142.cnf
c p 1000
c cnf 9132
s SATISFIABLE
c process-time: 0.00 seconds
-----
c input_v2/binomial/cnf_noALO_v2/10x10_143.cnf
c p 900
c cnf 7923
s SATISFIABLE
c process-time: 0.00 seconds
-----
c input_v2/binomial/cnf_noALO_v2/10x10_144.cnf
c p 1100
c cnf 10038
s SATISFIABLE
c process-time: 0.00 seconds
-----
c input_v2/binomial/cnf_noALO_v2/10x10_145.cnf
c p 1100
c cnf 10170
s SATISFIABLE
c process-time: 0.00 seconds
-----
c input_v2/binomial/cnf_noALO_v2/10x15_387.cnf
c p 1500
c cnf 14783
s SATISFIABLE
c process-time: 0.05 seconds
-----
c input_v2/binomial/cnf_noALO_v2/10x15_388.cnf
c p 1350
c cnf 13172
s SATISFIABLE
c process-time: 0.14 seconds
-----
c input_v2/binomial/cnf_noALO_v2/10x15_389.cnf
c p 1200
c cnf 11194
s SATISFIABLE
c process-time: 0.04 seconds
-----
c input_v2/binomial/cnf_noALO_v2/10x15_390.cnf
c p 1500
c cnf 14960
s SATISFIABLE
c process-time: 0.04 seconds
-----
c input_v2/binomial/cnf_noALO_v2/10x15_396.cnf
c p 1200
c cnf 11209
s SATISFIABLE
c process-time: 0.03 seconds
-----
c input_v2/binomial/cnf_noALO_v2/10x15_397.cnf
c p 1350
c cnf 13010
s SATISFIABLE
c process-time: 0.02 seconds
-----
c input_v2/binomial/cnf_noALO_v2/10x15_398.cnf
c p 1200
c cnf 11186
s SATISFIABLE
c process-time: 1s 0.79 seconds
-----
c input_v2/binomial/cnf_noALO_v2/10x15_399.cnf
c p 1350
c cnf 13017
s SATISFIABLE
c process-time: 0.04 seconds
-----
c input_v2/binomial/cnf_noALO_v2/10x15_400.cnf
c p 1200
c cnf 11212
s SATISFIABLE
c process-time: 0.33 seconds
-----
c input_v2/binomial/cnf_noALO_v2/10x18_186.cnf
c p 2340
c cnf 25909
s SATISFIABLE
c process-time: 0.12 seconds
-----
c input_v2/binomial/cnf_noALO_v2/10x18_187.cnf
c p 1800
c cnf 18488
s SATISFIABLE
c process-time: 2s 1.89 seconds
-----
c input_v2/binomial/cnf_noALO_v2/10x18_198.cnf
c p 2880
c cnf 34444
s SATISFIABLE
c process-time: 0.02 seconds
-----
c input_v2/binomial/cnf_noALO_v2/10x18_199.cnf
c p 2340
c cnf 26060
s SATISFIABLE
c process-time: 0.02 seconds
-----
c input_v2/binomial/cnf_noALO_v2/10x18_200.cnf
c p 2160
c cnf 23353
s SATISFIABLE
c process-time: 0.17 seconds
-----
c input_v2/binomial/cnf_noALO_v2/10x18_208.cnf
c p 2520
c cnf 29098
s SATISFIABLE
c process-time: 0.01 seconds
-----
c input_v2/binomial/cnf_noALO_v2/10x18_209.cnf
c p 2160
c cnf 23682
s SATISFIABLE
c process-time: 0.04 seconds
-----
c input_v2/binomial/cnf_noALO_v2/10x18_414.cnf
c p 3060
c cnf 37070
s SATISFIABLE
c process-time: 0.04 seconds
-----
c input_v2/binomial/cnf_noALO_v2/10x18_415.cnf
c p 2880
c cnf 34187
s SATISFIABLE
c process-time: 0.03 seconds
-----
c input_v2/binomial/cnf_noALO_v2/10x18_416.cnf
c p 1800
c cnf 18339
s SATISFIABLE
c process-time: 0.16 seconds
-----
c input_v2/binomial/cnf_noALO_v2/10x18_417.cnf
c p 2160
c cnf 23297
s SATISFIABLE
c process-time: 0.09 seconds
-----
c input_v2/binomial/cnf_noALO_v2/11x11_120.cnf
c p 1452
c cnf 14433
s SATISFIABLE
c process-time: 0.00 seconds
-----
c input_v2/binomial/cnf_noALO_v2/11x11_121.cnf
c p 1089
c cnf 10057
s SATISFIABLE
c process-time: 0.00 seconds
-----
c input_v2/binomial/cnf_noALO_v2/11x11_122.cnf
c p 968
c cnf 8765
s SATISFIABLE
c process-time: 0.00 seconds
-----
c input_v2/binomial/cnf_noALO_v2/11x11_123.cnf
c p 1452
c cnf 14436
s SATISFIABLE
c process-time: 0.01 seconds
-----
c input_v2/binomial/cnf_noALO_v2/11x11_124.cnf
c p 1452
c cnf 14391
s SATISFIABLE
c process-time: 0.00 seconds
-----
c input_v2/binomial/cnf_noALO_v2/11x11_130.cnf
c p 1210
c cnf 11504
s SATISFIABLE
c process-time: 0.00 seconds
-----
c input_v2/binomial/cnf_noALO_v2/11x11_131.cnf
c p 1573
c cnf 16138
s SATISFIABLE
c process-time: 0.01 seconds
-----
c input_v2/binomial/cnf_noALO_v2/11x11_132.cnf
c p 1331
c cnf 13010
s SATISFIABLE
c process-time: 0.04 seconds
-----
c input_v2/binomial/cnf_noALO_v2/11x11_133.cnf
c p 1210
c cnf 11526
s SATISFIABLE
c process-time: 0.00 seconds
-----
c input_v2/binomial/cnf_noALO_v2/11x11_134.cnf
c p 1452
c cnf 14424
s SATISFIABLE
c process-time: 0.00 seconds
-----
c input_v2/binomial/cnf_noALO_v2/11x11_135.cnf
c p 1452
c cnf 14289
s SATISFIABLE
c process-time: 0.00 seconds
-----
c input_v2/binomial/cnf_noALO_v2/11x11_136.cnf
c p 968
c cnf 8704
s SATISFIABLE
c process-time: 0.01 seconds
-----
c input_v2/binomial/cnf_noALO_v2/11x11_137.cnf
c p 1452
c cnf 14636
s SATISFIABLE
c process-time: 0.01 seconds
-----
c input_v2/binomial/cnf_noALO_v2/11x11_138.cnf
c p 1452
c cnf 14440
s SATISFIABLE
c process-time: 0.00 seconds
-----
c input_v2/binomial/cnf_noALO_v2/11x11_139.cnf
c p 1089
c cnf 10058
s SATISFIABLE
c process-time: 0.01 seconds
-----
c input_v2/binomial/cnf_noALO_v2/11x11_140.cnf
c p 1452
c cnf 14627
s SATISFIABLE
c process-time: 0.01 seconds
-----
c input_v2/binomial/cnf_noALO_v2/11x11_141.cnf
c p 1089
c cnf 10069
s SATISFIABLE
c process-time: 0.00 seconds
-----
c input_v2/binomial/cnf_noALO_v2/11x11_142.cnf
c p 1210
c cnf 11453
s SATISFIABLE
c process-time: 0.00 seconds
-----
c input_v2/binomial/cnf_noALO_v2/11x11_143.cnf
c p 1089
c cnf 10174
s SATISFIABLE
c process-time: 0.01 seconds
-----
c input_v2/binomial/cnf_noALO_v2/11x11_144.cnf
c p 1210
c cnf 11442
s SATISFIABLE
c process-time: 0.01 seconds
-----
c input_v2/binomial/cnf_noALO_v2/11x11_145.cnf
c p 1210
c cnf 11561
s SATISFIABLE
c process-time: 0.00 seconds
-----
c input_v2/binomial/cnf_noALO_v2/12x12_120.cnf
c p 2016
c cnf 21966
s SATISFIABLE
c process-time: 0.01 seconds
-----
c input_v2/binomial/cnf_noALO_v2/12x12_121.cnf
c p 1440
c cnf 14165
s SATISFIABLE
c process-time: 0.16 seconds
-----
c input_v2/binomial/cnf_noALO_v2/12x12_122.cnf
c p 1872
c cnf 20043
s SATISFIABLE
c process-time: 0.01 seconds
-----
c input_v2/binomial/cnf_noALO_v2/12x12_123.cnf
c p 1584
c cnf 16089
s SATISFIABLE
c process-time: 0.01 seconds
-----
c input_v2/binomial/cnf_noALO_v2/12x12_124.cnf
c p 1872
c cnf 19955
s SATISFIABLE
c process-time: 0.01 seconds
-----
c input_v2/binomial/cnf_noALO_v2/12x12_130.cnf
c p 1872
c cnf 19953
s SATISFIABLE
c process-time: 0.01 seconds
-----
c input_v2/binomial/cnf_noALO_v2/12x12_131.cnf
c p 1440
c cnf 14261
s SATISFIABLE
c process-time: 0.01 seconds
-----
c input_v2/binomial/cnf_noALO_v2/12x12_132.cnf
c p 1872
c cnf 19781
s SATISFIABLE
c process-time: 0.01 seconds
-----
c input_v2/binomial/cnf_noALO_v2/12x12_133.cnf
c p 1872
c cnf 19652
s SATISFIABLE
c process-time: 0.01 seconds
-----
c input_v2/binomial/cnf_noALO_v2/12x12_134.cnf
c p 1728
c cnf 18186
s SATISFIABLE
c process-time: 0.01 seconds
-----
c input_v2/binomial/cnf_noALO_v2/12x12_135.cnf
c p 1584
c cnf 15999
s SATISFIABLE
c process-time: 0.01 seconds
-----
c input_v2/binomial/cnf_noALO_v2/12x12_136.cnf
c p 1728
c cnf 17974
s SATISFIABLE
c process-time: 0.03 seconds
-----
c input_v2/binomial/cnf_noALO_v2/12x12_137.cnf
c p 1584
c cnf 16110
s SATISFIABLE
c process-time: 0.00 seconds
-----
c input_v2/binomial/cnf_noALO_v2/12x12_138.cnf
c p 1584
c cnf 16124
s SATISFIABLE
c process-time: 0.00 seconds
-----
c input_v2/binomial/cnf_noALO_v2/12x12_139.cnf
c p 1728
c cnf 17955
s SATISFIABLE
c process-time: 0.01 seconds
-----
c input_v2/binomial/cnf_noALO_v2/12x12_140.cnf
c p 1584
c cnf 15946
s SATISFIABLE
c process-time: 0.01 seconds
-----
c input_v2/binomial/cnf_noALO_v2/12x12_141.cnf
c p 1584
c cnf 16183
s SATISFIABLE
c process-time: 0.00 seconds
-----
c input_v2/binomial/cnf_noALO_v2/12x12_142.cnf
c p 1296
c cnf 12451
s SATISFIABLE
c process-time: 0.01 seconds
-----
c input_v2/binomial/cnf_noALO_v2/12x12_143.cnf
c p 2016
c cnf 21840
s SATISFIABLE
c process-time: 0.01 seconds
-----
c input_v2/binomial/cnf_noALO_v2/12x12_144.cnf
c p 1440
c cnf 14248
s SATISFIABLE
c process-time: 0.01 seconds
-----
c input_v2/binomial/cnf_noALO_v2/12x12_145.cnf
c p 1584
c cnf 16030
s SATISFIABLE
c process-time: 0.01 seconds
-----
c input_v2/binomial/cnf_noALO_v2/12x15_39.cnf
c p 2700
c cnf 31550
s SATISFIABLE
c process-time: 0.01 seconds
-----
c input_v2/binomial/cnf_noALO_v2/12x15_43.cnf
c p 2340
c cnf 26096
s SATISFIABLE
c process-time: 0.06 seconds
-----
c input_v2/binomial/cnf_noALO_v2/12x15_45.cnf
c p 1800
c cnf 18380
s SATISFIABLE
c process-time: 0.45 seconds
-----
c input_v2/binomial/cnf_noALO_v2/12x15_46.cnf
c p 1980
c cnf 20900
s SATISFIABLE
c process-time: 0.03 seconds
-----
c input_v2/binomial/cnf_noALO_v2/12x23_210.cnf
c p 6624
c cnf 102104
s SATISFIABLE
c process-time: 0.03 seconds
-----
c input_v2/binomial/cnf_noALO_v2/13x13_120.cnf
c p 2197
c cnf 24399
s SATISFIABLE
c process-time: 0.01 seconds
-----
c input_v2/binomial/cnf_noALO_v2/13x13_121.cnf
c p 2028
c cnf 21728
s SATISFIABLE
c process-time: 0.02 seconds
-----
c input_v2/binomial/cnf_noALO_v2/13x13_122.cnf
c p 1690
c cnf 17173
s SATISFIABLE
c process-time: 1s 0.60 seconds
-----
c input_v2/binomial/cnf_noALO_v2/13x13_123.cnf
c p 2366
c cnf 26710
s SATISFIABLE
c process-time: 0.01 seconds
-----
c input_v2/binomial/cnf_noALO_v2/13x13_124.cnf
c p 2197
c cnf 24248
s SATISFIABLE
c process-time: 0.07 seconds
-----
c input_v2/binomial/cnf_noALO_v2/13x13_130.cnf
c p 2197
c cnf 24321
s SATISFIABLE
c process-time: 0.05 seconds
-----
c input_v2/binomial/cnf_noALO_v2/13x13_131.cnf
c p 2028
c cnf 21914
s SATISFIABLE
c process-time: 0.02 seconds
-----
c input_v2/binomial/cnf_noALO_v2/13x13_132.cnf
c p 2366
c cnf 26700
s SATISFIABLE
c process-time: 0.01 seconds
-----
c input_v2/binomial/cnf_noALO_v2/13x13_133.cnf
c p 2028
c cnf 21805
s SATISFIABLE
c process-time: 0.27 seconds
-----
c input_v2/binomial/cnf_noALO_v2/13x13_134.cnf
c p 1859
c cnf 19391
s SATISFIABLE
c process-time: 2s 2.02 seconds
-----
c input_v2/binomial/cnf_noALO_v2/13x13_135.cnf
c p 2028
c cnf 21699
s SATISFIABLE
c process-time: 0.11 seconds
-----
c input_v2/binomial/cnf_noALO_v2/13x13_136.cnf
c p 2197
c cnf 24157
s SATISFIABLE
c process-time: 0.36 seconds
-----
c input_v2/binomial/cnf_noALO_v2/13x13_137.cnf
c p 2197
c cnf 24153
s SATISFIABLE
c process-time: 0.08 seconds
-----
c input_v2/binomial/cnf_noALO_v2/13x13_138.cnf
c p 2366
c cnf 26642
s SATISFIABLE
c process-time: 0.01 seconds
-----
c input_v2/binomial/cnf_noALO_v2/13x13_139.cnf
c p 2535
c cnf 29259
s SATISFIABLE
c process-time: 0.05 seconds
-----
c input_v2/binomial/cnf_noALO_v2/13x13_140.cnf
c p 2028
c cnf 22166
s SATISFIABLE
c process-time: 0.01 seconds
-----
c input_v2/binomial/cnf_noALO_v2/13x13_141.cnf
c p 1859
c cnf 19627
s SATISFIABLE
c process-time: 0.01 seconds
-----
c input_v2/binomial/cnf_noALO_v2/13x13_142.cnf
c p 1859
c cnf 19325
s SATISFIABLE
c process-time: 0.13 seconds
-----
c input_v2/binomial/cnf_noALO_v2/13x13_143.cnf
c p 1859
c cnf 19403
s SATISFIABLE
c process-time: 0.11 seconds
-----
c input_v2/binomial/cnf_noALO_v2/13x13_144.cnf
c p 2535
c cnf 29448
s SATISFIABLE
c process-time: 0.01 seconds
-----
c input_v2/binomial/cnf_noALO_v2/13x13_145.cnf
c p 2366
c cnf 26742
s SATISFIABLE
c process-time: 0.01 seconds
-----
c input_v2/binomial/cnf_noALO_v2/14x14_120.cnf
c p 2744
c cnf 31938
s SATISFIABLE
c process-time: 0.14 seconds
-----
c input_v2/binomial/cnf_noALO_v2/14x14_121.cnf
c p 2940
c cnf 35270
s SATISFIABLE
c process-time: 0.01 seconds
-----
c input_v2/binomial/cnf_noALO_v2/14x14_122.cnf
c p 2940
c cnf 35248
s SATISFIABLE
c process-time: 0.08 seconds
-----
c input_v2/binomial/cnf_noALO_v2/14x14_123.cnf
c p 2548
c cnf 28881
s SATISFIABLE
c process-time: 0.15 seconds
-----
c input_v2/binomial/cnf_noALO_v2/14x14_124.cnf
c p 2744
c cnf 31924
s SATISFIABLE
c process-time: 0.06 seconds
-----
c input_v2/binomial/cnf_noALO_v2/14x14_130.cnf
c p 2548
c cnf 29162
s SATISFIABLE
c process-time: 0.01 seconds
-----
c input_v2/binomial/cnf_noALO_v2/14x14_131.cnf
c p 2940
c cnf 35262
s SATISFIABLE
c process-time: 0.01 seconds
-----
c input_v2/binomial/cnf_noALO_v2/14x14_132.cnf
c p 3136
c cnf 38558
s SATISFIABLE
c process-time: 0.01 seconds
-----
c input_v2/binomial/cnf_noALO_v2/14x14_133.cnf
c p 3136
c cnf 38249
s SATISFIABLE
c process-time: 0.01 seconds
-----
c input_v2/binomial/cnf_noALO_v2/14x14_134.cnf
c p 2940
c cnf 35185
s SATISFIABLE
c process-time: 0.13 seconds
-----
c input_v2/binomial/cnf_noALO_v2/14x14_135.cnf
c p 2352
c cnf 26181
s SATISFIABLE
c process-time: 0.03 seconds
-----
c input_v2/binomial/cnf_noALO_v2/14x14_136.cnf
c p 2352
c cnf 26138
s SATISFIABLE
c process-time: 0.18 seconds
-----
c input_v2/binomial/cnf_noALO_v2/14x14_137.cnf
c p 2940
c cnf 35116
s SATISFIABLE
c process-time: 0.01 seconds
-----
c input_v2/binomial/cnf_noALO_v2/14x14_138.cnf
c p 2940
c cnf 35471
s SATISFIABLE
c process-time: 0.07 seconds
-----
c input_v2/binomial/cnf_noALO_v2/14x14_139.cnf
c p 2744
c cnf 32240
s SATISFIABLE
c process-time: 0.16 seconds
-----
c input_v2/binomial/cnf_noALO_v2/14x14_140.cnf
c p 3136
c cnf 38519
s SATISFIABLE
c process-time: 0.02 seconds
-----
c input_v2/binomial/cnf_noALO_v2/14x14_141.cnf
c p 3136
c cnf 38215
s SATISFIABLE
c process-time: 0.45 seconds
-----
c input_v2/binomial/cnf_noALO_v2/14x14_142.cnf
c p 2940
c cnf 35331
s SATISFIABLE
c process-time: 0.02 seconds
-----
c input_v2/binomial/cnf_noALO_v2/14x14_143.cnf
c p 2940
c cnf 35043
s SATISFIABLE
c process-time: 0.09 seconds
-----
c input_v2/binomial/cnf_noALO_v2/14x14_144.cnf
c p 2352
c cnf 26137
s SATISFIABLE
c process-time: 0.03 seconds
-----
c input_v2/binomial/cnf_noALO_v2/14x14_145.cnf
c p 3136
c cnf 38495
s SATISFIABLE
c process-time: 0.01 seconds
-----
c input_v2/binomial/cnf_noALO_v2/14x24_105.cnf
c p 7392
c cnf 113961
s SATISFIABLE
c process-time: 11s 10.61 seconds
-----
c input_v2/binomial/cnf_noALO_v2/14x24_110.cnf
c p 6720
c cnf 99048
s SATISFIABLE
c process-time: 4s 4.07 seconds
-----
c input_v2/binomial/cnf_noALO_v2/14x24_113.cnf
c p 8064
c cnf 129633
s SATISFIABLE
c process-time: 0.27 seconds
-----
c input_v2/binomial/cnf_noALO_v2/14x24_117.cnf
c p 6384
c cnf 91984
s SATISFIABLE
c process-time: 1s 1.25 seconds
-----
c input_v2/binomial/cnf_noALO_v2/14x24_129.cnf
c p 6720
c cnf 99172
s SATISFIABLE
c process-time: 15s 14.62 seconds
-----
c input_v2/binomial/cnf_noALO_v2/14x24_139.cnf
c p 6720
c cnf 99253
s SATISFIABLE
c process-time: 8s 8.15 seconds
-----
c input_v2/binomial/cnf_noALO_v2/14x24_147.cnf
c p 7056
c cnf 106193
s SATISFIABLE
c process-time: 4s 3.61 seconds
-----
c input_v2/binomial/cnf_noALO_v2/14x24_148.cnf
c p 5040
c cnf 65523
s SATISFIABLE
c process-time: 22s 21.98 seconds
-----
c input_v2/binomial/cnf_noALO_v2/14x24_157.cnf
c p 5376
c cnf 71969
s SATISFIABLE
c process-time: 2s 1.58 seconds
-----
c input_v2/binomial/cnf_noALO_v2/14x24_158.cnf
c p 4368
c cnf 53194
s SATISFIABLE
c process-time: 2s 1.69 seconds
-----
c input_v2/binomial/cnf_noALO_v2/14x24_169.cnf
c p 5040
c cnf 65371
s SATISFIABLE
c process-time: 3m 1s 180.94 seconds
-----
c input_v2/binomial/cnf_noALO_v2/14x24_179.cnf
c p 4368
c cnf 53327
s SATISFIABLE
c process-time: 18s 18.27 seconds
-----
c input_v2/binomial/cnf_noALO_v2/14x24_188.cnf
c p 7392
c cnf 114359
s SATISFIABLE
c process-time: 4s 3.94 seconds
-----
c input_v2/binomial/cnf_noALO_v2/14x24_189.cnf
c p 8736
c cnf 145561
s SATISFIABLE
c process-time: 1s 0.89 seconds
-----
c input_v2/binomial/cnf_noALO_v2/14x24_190.cnf
c p 4368
c cnf 53212
s SATISFIABLE
c process-time: 2s 1.81 seconds
-----
c input_v2/binomial/cnf_noALO_v2/14x24_199.cnf
c p 4032
c cnf 47616
s SATISFIABLE
c process-time: 2s 2.42 seconds
-----
c input_v2/binomial/cnf_noALO_v2/14x24_200.cnf
c p 4704
c cnf 59203
s SATISFIABLE
c process-time: 18s 18.44 seconds
-----
c input_v2/binomial/cnf_noALO_v2/14x24_208.cnf
c p 6720
c cnf 99118
s SATISFIABLE
c process-time: 2s 1.80 seconds
-----
c input_v2/binomial/cnf_noALO_v2/14x24_209.cnf
c p 4704
c cnf 59251
s SATISFIABLE
c process-time: 5s 4.57 seconds
-----
c input_v2/binomial/cnf_noALO_v2/14x24_218.cnf
c p 6720
c cnf 99373
s SATISFIABLE
c process-time: 11s 10.77 seconds
-----
c input_v2/binomial/cnf_noALO_v2/14x24_219.cnf
c p 5040
c cnf 65317
s SATISFIABLE
c process-time: 20s 20.32 seconds
-----
c input_v2/binomial/cnf_noALO_v2/14x24_418.cnf
c p 6048
c cnf 85439
s SATISFIABLE
c process-time: 10s 9.66 seconds
-----
c input_v2/binomial/cnf_noALO_v2/14x24_419.cnf
c p 8064
c cnf 129358
s SATISFIABLE
c process-time: 2s 1.74 seconds
-----
c input_v2/binomial/cnf_noALO_v2/14x24_420.cnf
c p 4704
c cnf 59251
s SATISFIABLE
c process-time: 4s 3.57 seconds
-----
c input_v2/binomial/cnf_noALO_v2/15x15_120.cnf
c p 3600
c cnf 45548
s SATISFIABLE
c process-time: 0.25 seconds
-----
c input_v2/binomial/cnf_noALO_v2/15x15_121.cnf
c p 2925
c cnf 34013
s SATISFIABLE
c process-time: 0.08 seconds
-----
c input_v2/binomial/cnf_noALO_v2/15x15_122.cnf
c p 3375
c cnf 41432
s SATISFIABLE
c process-time: 0.12 seconds
-----
c input_v2/binomial/cnf_noALO_v2/15x15_123.cnf
c p 3600
c cnf 45327
s SATISFIABLE
c process-time: 0.15 seconds
-----
c input_v2/binomial/cnf_noALO_v2/15x15_124.cnf
c p 3600
c cnf 45293
s SATISFIABLE
c process-time: 2s 1.79 seconds
-----
c input_v2/binomial/cnf_noALO_v2/15x15_130.cnf
c p 3375
c cnf 41469
s SATISFIABLE
c process-time: 0.03 seconds
-----
c input_v2/binomial/cnf_noALO_v2/15x15_131.cnf
c p 3600
c cnf 45195
s SATISFIABLE
c process-time: 0.07 seconds
-----
c input_v2/binomial/cnf_noALO_v2/15x15_132.cnf
c p 3600
c cnf 45329
s SATISFIABLE
c process-time: 0.08 seconds
-----
c input_v2/binomial/cnf_noALO_v2/15x15_133.cnf
c p 3600
c cnf 45152
s SATISFIABLE
c process-time: 1s 0.58 seconds
-----
c input_v2/binomial/cnf_noALO_v2/15x15_134.cnf
c p 3150
c cnf 37695
s SATISFIABLE
c process-time: 0.28 seconds
-----
c input_v2/binomial/cnf_noALO_v2/15x15_135.cnf
c p 3600
c cnf 45332
s SATISFIABLE
c process-time: 0.06 seconds
-----
c input_v2/binomial/cnf_noALO_v2/15x15_136.cnf
c p 3600
c cnf 45469
s SATISFIABLE
c process-time: 0.13 seconds
-----
c input_v2/binomial/cnf_noALO_v2/15x15_137.cnf
c p 3600
c cnf 45542
s SATISFIABLE
c process-time: 1s 0.51 seconds
-----
c input_v2/binomial/cnf_noALO_v2/15x15_138.cnf
c p 3600
c cnf 45305
s SATISFIABLE
c process-time: 0.15 seconds
-----
c input_v2/binomial/cnf_noALO_v2/15x15_139.cnf
c p 3375
c cnf 41371
s SATISFIABLE
c process-time: 0.09 seconds
-----
c input_v2/binomial/cnf_noALO_v2/15x15_140.cnf
c p 3600
c cnf 45356
s SATISFIABLE
c process-time: 0.10 seconds
-----
c input_v2/binomial/cnf_noALO_v2/15x15_141.cnf
c p 3600
c cnf 45364
s SATISFIABLE
c process-time: 1s 0.51 seconds
-----
c input_v2/binomial/cnf_noALO_v2/15x15_142.cnf
c p 3600
c cnf 45240
s SATISFIABLE
c process-time: 0.31 seconds
-----
c input_v2/binomial/cnf_noALO_v2/15x15_143.cnf
c p 3600
c cnf 45674
s SATISFIABLE
c process-time: 0.07 seconds
-----
c input_v2/binomial/cnf_noALO_v2/15x15_144.cnf
c p 3600
c cnf 45473
s SATISFIABLE
c process-time: 0.41 seconds
-----
c input_v2/binomial/cnf_noALO_v2/15x15_145.cnf
c p 3375
c cnf 41643
s SATISFIABLE
c process-time: 0.11 seconds
-----
c input_v2/binomial/cnf_noALO_v2/15x20_307.cnf
c p 3300
c cnf 37405
c process-time: 15m 899.84 seconds
UNKNOWN
-----
c input_v2/binomial/cnf_noALO_v2/15x20_308.cnf
c p 3600
c cnf 42183
s SATISFIABLE
c process-time: 12s 12.47 seconds
-----
c input_v2/binomial/cnf_noALO_v2/15x20_309.cnf
c p 3300
c cnf 37551
c process-time: 15m 899.66 seconds
UNKNOWN
-----
c input_v2/binomial/cnf_noALO_v2/15x20_310.cnf
c p 4500
c cnf 57633
s SATISFIABLE
c process-time: 6s 5.67 seconds
-----
c input_v2/binomial/cnf_noALO_v2/15x20_317.cnf
c p 4500
c cnf 57491
s SATISFIABLE
c process-time: 1s 0.69 seconds
-----
c input_v2/binomial/cnf_noALO_v2/15x20_318.cnf
c p 4500
c cnf 57549
s SATISFIABLE
c process-time: 7s 7.36 seconds
-----
c input_v2/binomial/cnf_noALO_v2/15x20_319.cnf
c p 4200
c cnf 52132
s SATISFIABLE
c process-time: 4m 40s 280.45 seconds
-----
c input_v2/binomial/cnf_noALO_v2/15x20_320.cnf
c p 4200
c cnf 52225
s SATISFIABLE
c process-time: 21s 21.02 seconds
-----
c input_v2/binomial/cnf_noALO_v2/17x17_100.cnf
c p 3468
c cnf 40464
s SATISFIABLE
c process-time: 2s 1.86 seconds
-----
c input_v2/binomial/cnf_noALO_v2/17x17_104.cnf
c p 5780
c cnf 83601
s SATISFIABLE
c process-time: 1s 1.31 seconds
-----
c input_v2/binomial/cnf_noALO_v2/17x17_109.cnf
c p 5491
c cnf 77426
s SATISFIABLE
c process-time: 1s 0.80 seconds
-----
c input_v2/binomial/cnf_noALO_v2/17x17_112.cnf
c p 6069
c cnf 89398
s SATISFIABLE
c process-time: 0.19 seconds
-----
c input_v2/binomial/cnf_noALO_v2/17x17_116.cnf
c p 5202
c cnf 71586
s SATISFIABLE
c process-time: 0.41 seconds
-----
c input_v2/binomial/cnf_noALO_v2/17x17_120.cnf
c p 3757
c cnf 45105
s SATISFIABLE
c process-time: 1s 1.48 seconds
-----
c input_v2/binomial/cnf_noALO_v2/17x17_128.cnf
c p 3757
c cnf 45399
s SATISFIABLE
c process-time: 3s 2.56 seconds
-----
c input_v2/binomial/cnf_noALO_v2/17x17_136.cnf
c p 5491
c cnf 77703
s SATISFIABLE
c process-time: 0.10 seconds
-----
c input_v2/binomial/cnf_noALO_v2/17x17_138.cnf
c p 3468
c cnf 40361
s SATISFIABLE
c process-time: 1s 0.67 seconds
-----
c input_v2/binomial/cnf_noALO_v2/17x17_165.cnf
c p 3757
c cnf 45073
s SATISFIABLE
c process-time: 1s 0.62 seconds
-----
c input_v2/binomial/cnf_noALO_v2/17x17_166.cnf
c p 3468
c cnf 40368
s SATISFIABLE
c process-time: 5s 4.52 seconds
-----
c input_v2/binomial/cnf_noALO_v2/17x17_167.cnf
c p 7803
c cnf 129353
s SATISFIABLE
c process-time: 0.05 seconds
-----
c input_v2/binomial/cnf_noALO_v2/17x17_168.cnf
c p 8381
c cnf 142889
s SATISFIABLE
c process-time: 0.03 seconds
-----
c input_v2/binomial/cnf_noALO_v2/17x17_175.cnf
c p 2890
c cnf 31552
s SATISFIABLE
c process-time: 1s 1.37 seconds
-----
c input_v2/binomial/cnf_noALO_v2/17x17_176.cnf
c p 2601
c cnf 27428
s SATISFIABLE
c process-time: 2m 54s 173.60 seconds
-----
c input_v2/binomial/cnf_noALO_v2/17x17_177.cnf
c p 6358
c cnf 95979
s SATISFIABLE
c process-time: 1s 0.67 seconds
-----
c input_v2/binomial/cnf_noALO_v2/17x17_178.cnf
c p 7225
c cnf 115869
s SATISFIABLE
c process-time: 0.05 seconds
-----
c input_v2/binomial/cnf_noALO_v2/17x17_187.cnf
c p 3179
c cnf 35919
s SATISFIABLE
c process-time: 1s 1.26 seconds
-----
c input_v2/binomial/cnf_noALO_v2/17x17_188.cnf
c p 3468
c cnf 40403
s SATISFIABLE
c process-time: 2s 1.51 seconds
-----
c input_v2/binomial/cnf_noALO_v2/17x17_197.cnf
c p 3468
c cnf 40452
s SATISFIABLE
c process-time: 3s 3.08 seconds
-----
c input_v2/binomial/cnf_noALO_v2/17x17_198.cnf
c p 2890
c cnf 31374
s SATISFIABLE
c process-time: 0.37 seconds
-----
c input_v2/binomial/cnf_noALO_v2/17x17_230.cnf
c p 2023
c cnf 19648
s SATISFIABLE
c process-time: 0.39 seconds
-----
c input_v2/binomial/cnf_noALO_v2/17x17_240.cnf
c p 2890
c cnf 31502
s SATISFIABLE
c process-time: 1s 1.07 seconds
-----
c input_v2/binomial/cnf_noALO_v2/17x17_250.cnf
c p 9537
c cnf 171331
s SATISFIABLE
c process-time: 0.06 seconds
-----
c input_v2/binomial/cnf_noALO_v2/17x17_260.cnf
c p 9537
c cnf 172378
s SATISFIABLE
c process-time: 0.10 seconds
-----
c input_v2/binomial/cnf_noALO_v2/17x17_270.cnf
c p 8381
c cnf 143065
s SATISFIABLE
c process-time: 0.43 seconds
-----
c input_v2/binomial/cnf_noALO_v2/17x17_429.cnf
c p 5491
c cnf 77556
s SATISFIABLE
c process-time: 0.03 seconds
-----
c input_v2/binomial/cnf_noALO_v2/17x17_439.cnf
c p 3468
c cnf 40531
s SATISFIABLE
c process-time: 39s 38.50 seconds
-----
c input_v2/binomial/cnf_noALO_v2/17x17_449.cnf
c p 4913
c cnf 66248
s SATISFIABLE
c process-time: 5s 5.18 seconds
-----
c input_v2/binomial/cnf_noALO_v2/20x20_430.cnf
c p 10400
c cnf 180097
s SATISFIABLE
c process-time: 10s 9.77 seconds
-----
c input_v2/binomial/cnf_noALO_v2/20x20_440.cnf
c p 5200
c cnf 64720
c process-time: 15m 899.76 seconds
UNKNOWN
-----
c input_v2/binomial/cnf_noALO_v2/20x20_450.cnf
c p 6400
c cnf 87216
s SATISFIABLE
c process-time: 9m 45s 585.15 seconds
-----
c input_v2/binomial/cnf_noALO_v2/20x36_106.cnf
c p 26640
c cnf 609711
s SATISFIABLE
c process-time: 1m 43s 103.16 seconds
-----
c input_v2/binomial/cnf_noALO_v2/20x36_114.cnf
c p 26640
c cnf 610072
s SATISFIABLE
c process-time: 7m 20s 440.05 seconds
-----
c input_v2/binomial/cnf_noALO_v2/20x36_118.cnf
c p 22320
c cnf 458849
c process-time: 15m 899.79 seconds
UNKNOWN
-----
c input_v2/binomial/cnf_noALO_v2/20x36_130.cnf
c p 22320
c cnf 458866
c process-time: 15m 899.86 seconds
UNKNOWN
-----
c input_v2/binomial/cnf_noALO_v2/20x36_140.cnf
c p 22320
c cnf 458914
c process-time: 15m 899.90 seconds
UNKNOWN
-----
c input_v2/binomial/cnf_noALO_v2/20x36_149.cnf
c p 20160
c cnf 389738
c process-time: 15m 899.85 seconds
UNKNOWN
-----
c input_v2/binomial/cnf_noALO_v2/20x36_150.cnf
c p 15840
c cnf 267030
c process-time: 15m 899.93 seconds
UNKNOWN
-----
c input_v2/binomial/cnf_noALO_v2/20x36_159.cnf
c p 22320
c cnf 459057
c process-time: 15m 900.06 seconds
UNKNOWN
-----
c input_v2/binomial/cnf_noALO_v2/20x36_160.cnf
c p 15840
c cnf 267052
c process-time: 15m 899.97 seconds
UNKNOWN
-----
c input_v2/binomial/cnf_noALO_v2/20x36_170.cnf
c p 23760
c cnf 507353
c process-time: 15m 899.61 seconds
UNKNOWN
-----
c input_v2/binomial/cnf_noALO_v2/20x36_180.cnf
c p 15840
c cnf 267186
c process-time: 15m 899.79 seconds
UNKNOWN
-----
c input_v2/binomial/cnf_noALO_v2/20x36_210.cnf
c p 23760
c cnf 507353
c process-time: 15m 900.10 seconds
UNKNOWN
-----
c input_v2/binomial/cnf_noALO_v2/20x36_220.cnf
c p 26640
c cnf 609044
c process-time: 14m 59s 899.36 seconds
UNKNOWN
-----
c input_v2/binomial/cnf_noALO_v2/25x25_60.cnf
c p 15625
c cnf 279588
s SATISFIABLE
c process-time: 1m 55s 114.99 seconds
-----
c input_v2/binomial/cnf_noALO_v2/25x25_66.cnf
c p 18750
c cnf 372437
s SATISFIABLE
c process-time: 5m 45s 345.31 seconds
-----
c input_v2/binomial/cnf_noALO_v2/25x25_72.cnf
c p 24375
c cnf 565171
s SATISFIABLE
c process-time: 13m 32s 812.23 seconds
-----
c input_v2/binomial/cnf_noALO_v2/25x25_78.cnf
c p 19375
c cnf 392183
s SATISFIABLE
c process-time: 2m 17s 136.68 seconds
-----
c input_v2/binomial/cnf_noALO_v2/25x42_110.cnf
c p 65100
c cnf 2187423
s SATISFIABLE
c process-time: 34s 33.92 seconds
-----
c input_v2/binomial/cnf_noALO_v2/35x48_190.cnf
c p 67200
c cnf 1738645
c process-time: 15m 899.65 seconds
UNKNOWN
-----
c input_v2/binomial/cnf_noALO_v2/6x6_120.cnf
c p 144
c cnf 868
s SATISFIABLE
c process-time: 0.00 seconds
-----
c input_v2/binomial/cnf_noALO_v2/6x6_121.cnf
c p 216
c cnf 1300
s SATISFIABLE
c process-time: 0.00 seconds
-----
c input_v2/binomial/cnf_noALO_v2/6x6_122.cnf
c p 180
c cnf 1071
s SATISFIABLE
c process-time: 0.00 seconds
-----
c input_v2/binomial/cnf_noALO_v2/6x6_123.cnf
c p 180
c cnf 1141
s SATISFIABLE
c process-time: 0.00 seconds
-----
c input_v2/binomial/cnf_noALO_v2/6x6_124.cnf
c p 180
c cnf 1063
s SATISFIABLE
c process-time: 0.00 seconds
-----
c input_v2/binomial/cnf_noALO_v2/6x6_125.cnf
c p 180
c cnf 1084
s SATISFIABLE
c process-time: 0.00 seconds
-----
c input_v2/binomial/cnf_noALO_v2/6x6_130.cnf
c p 144
c cnf 867
s SATISFIABLE
c process-time: 0.00 seconds
-----
c input_v2/binomial/cnf_noALO_v2/6x6_131.cnf
c p 216
c cnf 1289
s SATISFIABLE
c process-time: 0.00 seconds
-----
c input_v2/binomial/cnf_noALO_v2/6x6_132.cnf
c p 144
c cnf 851
s SATISFIABLE
c process-time: 0.00 seconds
-----
c input_v2/binomial/cnf_noALO_v2/6x6_133.cnf
c p 216
c cnf 1258
s SATISFIABLE
c process-time: 0.00 seconds
-----
c input_v2/binomial/cnf_noALO_v2/6x6_134.cnf
c p 216
c cnf 1278
s SATISFIABLE
c process-time: 0.00 seconds
-----
c input_v2/binomial/cnf_noALO_v2/6x6_135.cnf
c p 144
c cnf 852
s SATISFIABLE
c process-time: 0.00 seconds
-----
c input_v2/binomial/cnf_noALO_v2/6x6_136.cnf
c p 144
c cnf 894
s SATISFIABLE
c process-time: 0.00 seconds
-----
c input_v2/binomial/cnf_noALO_v2/6x6_137.cnf
c p 180
c cnf 1128
s SATISFIABLE
c process-time: 0.00 seconds
-----
c input_v2/binomial/cnf_noALO_v2/6x6_138.cnf
c p 180
c cnf 1114
s SATISFIABLE
c process-time: 0.00 seconds
-----
c input_v2/binomial/cnf_noALO_v2/6x6_139.cnf
c p 180
c cnf 1063
s SATISFIABLE
c process-time: 0.00 seconds
-----
c input_v2/binomial/cnf_noALO_v2/6x6_140.cnf
c p 252
c cnf 1448
s SATISFIABLE
c process-time: 0.00 seconds
-----
c input_v2/binomial/cnf_noALO_v2/6x6_141.cnf
c p 144
c cnf 853
s SATISFIABLE
c process-time: 0.00 seconds
-----
c input_v2/binomial/cnf_noALO_v2/6x6_142.cnf
c p 180
c cnf 1079
s SATISFIABLE
c process-time: 0.00 seconds
-----
c input_v2/binomial/cnf_noALO_v2/6x6_143.cnf
c p 216
c cnf 1312
s SATISFIABLE
c process-time: 0.00 seconds
-----
c input_v2/binomial/cnf_noALO_v2/6x6_144.cnf
c p 216
c cnf 1323
s SATISFIABLE
c process-time: 0.00 seconds
-----
c input_v2/binomial/cnf_noALO_v2/6x6_145.cnf
c p 180
c cnf 1088
s SATISFIABLE
c process-time: 0.00 seconds
-----
c input_v2/binomial/cnf_noALO_v2/7x7_120.cnf
c p 294
c cnf 1896
s SATISFIABLE
c process-time: 0.00 seconds
-----
c input_v2/binomial/cnf_noALO_v2/7x7_121.cnf
c p 343
c cnf 2379
s SATISFIABLE
c process-time: 0.00 seconds
-----
c input_v2/binomial/cnf_noALO_v2/7x7_122.cnf
c p 343
c cnf 2424
s SATISFIABLE
c process-time: 0.00 seconds
-----
c input_v2/binomial/cnf_noALO_v2/7x7_123.cnf
c p 245
c cnf 1578
s SATISFIABLE
c process-time: 0.00 seconds
-----
c input_v2/binomial/cnf_noALO_v2/7x7_124.cnf
c p 294
c cnf 1970
s SATISFIABLE
c process-time: 0.00 seconds
-----
c input_v2/binomial/cnf_noALO_v2/7x7_130.cnf
c p 196
c cnf 1331
s SATISFIABLE
c process-time: 0.00 seconds
-----
c input_v2/binomial/cnf_noALO_v2/7x7_131.cnf
c p 294
c cnf 2035
s SATISFIABLE
c process-time: 0.00 seconds
-----
c input_v2/binomial/cnf_noALO_v2/7x7_132.cnf
c p 392
c cnf 2711
s SATISFIABLE
c process-time: 0.00 seconds
-----
c input_v2/binomial/cnf_noALO_v2/7x7_133.cnf
c p 294
c cnf 2065
s SATISFIABLE
c process-time: 0.00 seconds
-----
c input_v2/binomial/cnf_noALO_v2/7x7_134.cnf
c p 245
c cnf 1620
s SATISFIABLE
c process-time: 0.00 seconds
-----
c input_v2/binomial/cnf_noALO_v2/7x7_135.cnf
c p 343
c cnf 2463
s SATISFIABLE
c process-time: 0.00 seconds
-----
c input_v2/binomial/cnf_noALO_v2/7x7_136.cnf
c p 245
c cnf 1609
s SATISFIABLE
c process-time: 0.00 seconds
-----
c input_v2/binomial/cnf_noALO_v2/7x7_137.cnf
c p 245
c cnf 1641
s SATISFIABLE
c process-time: 0.00 seconds
-----
c input_v2/binomial/cnf_noALO_v2/7x7_138.cnf
c p 294
c cnf 1998
s SATISFIABLE
c process-time: 0.00 seconds
-----
c input_v2/binomial/cnf_noALO_v2/7x7_139.cnf
c p 294
c cnf 2030
s SATISFIABLE
c process-time: 0.00 seconds
-----
c input_v2/binomial/cnf_noALO_v2/7x7_140.cnf
c p 294
c cnf 1965
s SATISFIABLE
c process-time: 0.00 seconds
-----
c input_v2/binomial/cnf_noALO_v2/7x7_141.cnf
c p 294
c cnf 1972
s SATISFIABLE
c process-time: 0.00 seconds
-----
c input_v2/binomial/cnf_noALO_v2/7x7_142.cnf
c p 294
c cnf 1994
s SATISFIABLE
c process-time: 0.00 seconds
-----
c input_v2/binomial/cnf_noALO_v2/7x7_143.cnf
c p 343
c cnf 2453
s SATISFIABLE
c process-time: 0.00 seconds
-----
c input_v2/binomial/cnf_noALO_v2/7x7_144.cnf
c p 294
c cnf 2001
s SATISFIABLE
c process-time: 0.00 seconds
-----
c input_v2/binomial/cnf_noALO_v2/7x7_145.cnf
c p 294
c cnf 1959
s SATISFIABLE
c process-time: 0.00 seconds
-----
c input_v2/binomial/cnf_noALO_v2/8x8_120.cnf
c p 512
c cnf 3860
s SATISFIABLE
c process-time: 0.00 seconds
-----
c input_v2/binomial/cnf_noALO_v2/8x8_121.cnf
c p 512
c cnf 3868
s SATISFIABLE
c process-time: 0.00 seconds
-----
c input_v2/binomial/cnf_noALO_v2/8x8_122.cnf
c p 512
c cnf 3982
s SATISFIABLE
c process-time: 0.00 seconds
-----
c input_v2/binomial/cnf_noALO_v2/8x8_123.cnf
c p 512
c cnf 3822
s SATISFIABLE
c process-time: 0.00 seconds
-----
c input_v2/binomial/cnf_noALO_v2/8x8_124.cnf
c p 384
c cnf 2929
s SATISFIABLE
c process-time: 0.00 seconds
-----
c input_v2/binomial/cnf_noALO_v2/8x8_130.cnf
c p 384
c cnf 2805
s SATISFIABLE
c process-time: 0.00 seconds
-----
c input_v2/binomial/cnf_noALO_v2/8x8_131.cnf
c p 512
c cnf 3868
s SATISFIABLE
c process-time: 0.00 seconds
-----
c input_v2/binomial/cnf_noALO_v2/8x8_132.cnf
c p 448
c cnf 3294
s SATISFIABLE
c process-time: 0.00 seconds
-----
c input_v2/binomial/cnf_noALO_v2/8x8_133.cnf
c p 384
c cnf 2843
s SATISFIABLE
c process-time: 0.00 seconds
-----
c input_v2/binomial/cnf_noALO_v2/8x8_134.cnf
c p 512
c cnf 3787
s SATISFIABLE
c process-time: 0.00 seconds
-----
c input_v2/binomial/cnf_noALO_v2/8x8_135.cnf
c p 384
c cnf 2800
s SATISFIABLE
c process-time: 0.00 seconds
-----
c input_v2/binomial/cnf_noALO_v2/8x8_136.cnf
c p 448
c cnf 3312
s SATISFIABLE
c process-time: 0.00 seconds
-----
c input_v2/binomial/cnf_noALO_v2/8x8_137.cnf
c p 512
c cnf 3863
s SATISFIABLE
c process-time: 0.00 seconds
-----
c input_v2/binomial/cnf_noALO_v2/8x8_138.cnf
c p 320
c cnf 2311
s SATISFIABLE
c process-time: 0.00 seconds
-----
c input_v2/binomial/cnf_noALO_v2/8x8_139.cnf
c p 512
c cnf 3816
s SATISFIABLE
c process-time: 0.00 seconds
-----
c input_v2/binomial/cnf_noALO_v2/8x8_140.cnf
c p 448
c cnf 3401
s SATISFIABLE
c process-time: 0.00 seconds
-----
c input_v2/binomial/cnf_noALO_v2/8x8_141.cnf
c p 512
c cnf 3973
s SATISFIABLE
c process-time: 0.00 seconds
-----
c input_v2/binomial/cnf_noALO_v2/8x8_142.cnf
c p 448
c cnf 3343
s SATISFIABLE
c process-time: 0.00 seconds
-----
c input_v2/binomial/cnf_noALO_v2/8x8_143.cnf
c p 576
c cnf 4505
s SATISFIABLE
c process-time: 0.00 seconds
-----
c input_v2/binomial/cnf_noALO_v2/8x8_144.cnf
c p 448
c cnf 3409
s SATISFIABLE
c process-time: 0.00 seconds
-----
c input_v2/binomial/cnf_noALO_v2/8x8_145.cnf
c p 512
c cnf 3952
s SATISFIABLE
c process-time: 0.00 seconds
-----
c input_v2/binomial/cnf_noALO_v2/9x9_120.cnf
c p 567
c cnf 4535
s SATISFIABLE
c process-time: 0.00 seconds
-----
c input_v2/binomial/cnf_noALO_v2/9x9_121.cnf
c p 729
c cnf 6102
s SATISFIABLE
c process-time: 0.00 seconds
-----
c input_v2/binomial/cnf_noALO_v2/9x9_122.cnf
c p 729
c cnf 6042
s SATISFIABLE
c process-time: 0.00 seconds
-----
c input_v2/binomial/cnf_noALO_v2/9x9_123.cnf
c p 648
c cnf 5232
s SATISFIABLE
c process-time: 0.00 seconds
-----
c input_v2/binomial/cnf_noALO_v2/9x9_124.cnf
c p 810
c cnf 6949
s SATISFIABLE
c process-time: 0.00 seconds
-----
c input_v2/binomial/cnf_noALO_v2/9x9_130.cnf
c p 729
c cnf 6071
s SATISFIABLE
c process-time: 0.00 seconds
-----
c input_v2/binomial/cnf_noALO_v2/9x9_131.cnf
c p 810
c cnf 6839
s SATISFIABLE
c process-time: 0.00 seconds
-----
c input_v2/binomial/cnf_noALO_v2/9x9_132.cnf
c p 810
c cnf 6889
s SATISFIABLE
c process-time: 0.00 seconds
-----
c input_v2/binomial/cnf_noALO_v2/9x9_133.cnf
c p 729
c cnf 6154
s SATISFIABLE
c process-time: 0.00 seconds
-----
c input_v2/binomial/cnf_noALO_v2/9x9_134.cnf
c p 567
c cnf 4633
s SATISFIABLE
c process-time: 0.00 seconds
-----
c input_v2/binomial/cnf_noALO_v2/9x9_135.cnf
c p 648
c cnf 5334
s SATISFIABLE
c process-time: 0.00 seconds
-----
c input_v2/binomial/cnf_noALO_v2/9x9_136.cnf
c p 648
c cnf 5352
s SATISFIABLE
c process-time: 0.00 seconds
-----
c input_v2/binomial/cnf_noALO_v2/9x9_137.cnf
c p 567
c cnf 4519
s SATISFIABLE
c process-time: 0.00 seconds
-----
c input_v2/binomial/cnf_noALO_v2/9x9_138.cnf
c p 648
c cnf 5371
s SATISFIABLE
c process-time: 0.00 seconds
-----
c input_v2/binomial/cnf_noALO_v2/9x9_139.cnf
c p 729
c cnf 5986
s SATISFIABLE
c process-time: 0.00 seconds
-----
c input_v2/binomial/cnf_noALO_v2/9x9_140.cnf
c p 729
c cnf 6227
s SATISFIABLE
c process-time: 0.00 seconds
-----
c input_v2/binomial/cnf_noALO_v2/9x9_141.cnf
c p 567
c cnf 4525
s SATISFIABLE
c process-time: 0.00 seconds
-----
c input_v2/binomial/cnf_noALO_v2/9x9_142.cnf
c p 810
c cnf 6924
s SATISFIABLE
c process-time: 0.00 seconds
-----
c input_v2/binomial/cnf_noALO_v2/9x9_143.cnf
c p 648
c cnf 5386
s SATISFIABLE
c process-time: 0.00 seconds
-----
c input_v2/binomial/cnf_noALO_v2/9x9_144.cnf
c p 729
c cnf 6100
s SATISFIABLE
c process-time: 0.00 seconds
-----
c input_v2/binomial/cnf_noALO_v2/9x9_145.cnf
c p 648
c cnf 5299
s SATISFIABLE
c process-time: 0.00 seconds
-----
UNKNOWN
-----

